NAME: tsp30_12
COMMENT: 30-tsp problem (Padberg/Rinaldi)
TYPE: TSP
DIMENSION: 30
EDGE_WEIGHT_TYPE : EUC_2D
NODE_COORD_SECTION
1.00 5.20 18.77
2.00 26.09 10.76
3.00 17.91 28.67
4.00 8.49 14.76
5.00 2.75 6.77
6.00 29.94 37.18
7.00 15.90 34.11
8.00 20.46 6.00
9.00 36.42 2.34
10.00 3.12 30.14
11.00 1.02 26.03
12.00 12.60 39.69
13.00 0.68 34.70
14.00 31.96 15.47
15.00 10.70 6.21
16.00 20.03 25.22
17.00 7.21 29.97
18.00 35.88 6.30
19.00 24.02 14.28
20.00 37.85 6.00
21.00 29.44 21.61
22.00 37.93 22.47
23.00 3.40 28.45
24.00 10.34 12.79
25.00 27.68 6.51
26.00 7.68 34.42
27.00 38.94 34.57
28.00 28.89 5.87
29.00 23.20 2.17
30.00 10.25 19.50
